(declare-fun $V109_cpt$2 () Int)
(declare-fun $V23_plus$~1 () Bool)
(declare-fun $V22_speed$2 () Int)
(declare-fun $V98_Sofar$2 () Bool)
(declare-fun $V93_X$2 () Bool)
(declare-fun $V25_realistic$2 () Bool)
(declare-fun $OK$2 () Bool)
(declare-fun $V98_Sofar$~1 () Bool)
(declare-fun $V109_cpt$~1 () Int)
(declare-fun $diff$0 () Int)
(declare-fun $V24_minus$~1 () Bool)
(declare-fun $V110_acceptable$2 () Bool)
(declare-fun %init () Bool)

(assert (let ((a!1 (or (not (<= (- 4) $diff$0))
               (not (<= $diff$0 4))
               (and (or %init $V23_plus$~1) (not (>= $diff$0 1)))
               (and (not %init) $V24_minus$~1 (not (<= $diff$0 (- 1))))))
      (a!2 (or (not (<= (- 4) $diff$0))
               (not (<= $diff$0 4))
               (and (or %init $V23_plus$~1) (not (>= $diff$0 1)))
               (and (not %init) $V24_minus$~1 (not (<= $diff$0 (- 1))))
               (not $V98_Sofar$~1)))
      (a!3 (and (and (<= (- 0 4) $diff$0) (<= $diff$0 4))
                (ite (ite true true $V23_plus$~1) (>= $diff$0 1) true)
                (ite (ite true false $V24_minus$~1) (<= $diff$0 (- 0 1)) true)))
      (a!4 (and (and (<= (- 0 4) $diff$0) (<= $diff$0 4))
                (ite (ite %init true $V23_plus$~1) (>= $diff$0 1) true)
                (ite (ite %init false $V24_minus$~1) (<= $diff$0 (- 0 1)) true))))
(let ((a!5 (ite %init
                (and (< 8 16) a!3 (<= 0 8))
                (and (and (< 8 16) a!4 (<= 0 8)) $V98_Sofar$~1)))
      (a!8 (ite %init
                (and (< (- 1) 16) a!3 (<= 0 (- 1)))
                (and (and (< (- 1) 16) a!4 (<= 0 (- 1))) $V98_Sofar$~1))))
(let ((a!6 (= $OK$2 (or (ite %init true (<= $V109_cpt$~1 7)) (not a!5))))
      (a!9 (= $OK$2 (or (ite %init true (<= $V109_cpt$~1 7)) (not a!8)))))
(let ((a!7 (and a!6
                (= $V98_Sofar$2 a!5)
                (= $V25_realistic$2 a!4)
                (= $V93_X$2 (and (< 8 16) a!4 (<= 0 8)))
                (= $V22_speed$2 8)
                (= $V109_cpt$2 0)
                (= $V110_acceptable$2 true)))
      (a!10 (and a!9
                 (= $V98_Sofar$2 a!8)
                 (= $V25_realistic$2 a!4)
                 (= $V93_X$2 (and (< (- 1) 16) a!4 (<= 0 (- 1))))
                 (= $V22_speed$2 (- 1))
                 (= $V109_cpt$2 (+ 1 $V109_cpt$~1))
                 (= $V110_acceptable$2 false))))
(let ((a!11 (ite (or (and %init (= $V109_cpt$~1 (- 1))) (not %init)) a!10 true)))
  (ite (or (and %init a!1) (and (not %init) a!2) %init (<= $V109_cpt$~1 7))
       a!7
       a!11)))))))
(check-sat)
